# Solution for model PD-Stages
# Objective value = 2.2276212485737574e+01
zigjg[101,102,3] 0
zigjg[101,203,3] 0
zigjg[101,303,3] 1
zigjg[101,304,3] 0
zigjg[101,405,3] 0
zigjg[101,505,3] 0
zigjg[101,506,3] 0
zigjg[101,607,3] 0
zigjg[101,707,3] 0
zigjg[102,101,3] 0
zigjg[102,203,3] 0
zigjg[102,303,3] 0
zigjg[102,304,3] 1
zigjg[102,405,3] 0
zigjg[102,505,3] 0
zigjg[102,506,3] 0
zigjg[102,607,3] 0
zigjg[102,707,3] 0
zigjg[203,101,3] 1
zigjg[203,102,3] 0
zigjg[203,303,3] 0
zigjg[203,304,3] 0
zigjg[203,405,3] 0
zigjg[203,505,3] 0
zigjg[203,506,3] 0
zigjg[203,607,3] 0
zigjg[203,707,3] 0
zigjg[303,101,3] 0
zigjg[303,102,3] 1
zigjg[303,203,3] 0
zigjg[303,304,3] 0
zigjg[303,405,3] 0
zigjg[303,505,3] 0
zigjg[303,506,3] 0
zigjg[303,607,3] 0
zigjg[303,707,3] 0
zigjg[304,101,3] 0
zigjg[304,102,3] 0
zigjg[304,203,3] 0
zigjg[304,303,3] 0
zigjg[304,405,3] 0
zigjg[304,505,3] 0
zigjg[304,506,3] 1
zigjg[304,607,3] 0
zigjg[304,707,3] 0
zigjg[405,101,3] 0
zigjg[405,102,3] 0
zigjg[405,203,3] 1
zigjg[405,303,3] 0
zigjg[405,304,3] 0
zigjg[405,505,3] 0
zigjg[405,506,3] 0
zigjg[405,607,3] 0
zigjg[405,707,3] 0
zigjg[505,101,3] 0
zigjg[505,102,3] 0
zigjg[505,203,3] 0
zigjg[505,303,3] 0
zigjg[505,304,3] 0
zigjg[505,405,3] 1
zigjg[505,506,3] 0
zigjg[505,607,3] 0
zigjg[505,707,3] 0
zigjg[506,101,3] 0
zigjg[506,102,3] 0
zigjg[506,203,3] 0
zigjg[506,303,3] 0
zigjg[506,304,3] 0
zigjg[506,405,3] 0
zigjg[506,505,3] 0
zigjg[506,607,3] 0
zigjg[506,707,3] 1
zigjg[607,101,3] 0
zigjg[607,102,3] 0
zigjg[607,203,3] 0
zigjg[607,303,3] 0
zigjg[607,304,3] 0
zigjg[607,405,3] 0
zigjg[607,505,3] 1
zigjg[607,506,3] 0
zigjg[607,707,3] 0
zigjg[707,101,3] 0
zigjg[707,102,3] 0
zigjg[707,203,3] 0
zigjg[707,303,3] 0
zigjg[707,304,3] 0
zigjg[707,405,3] 0
zigjg[707,505,3] 0
zigjg[707,506,3] 0
zigjg[707,607,3] 1
sig[101,3] 0
sig[102,3] 2
sig[203,3] 9
sig[303,3] 1
sig[304,3] 3
sig[405,3] 8
sig[505,3] 7
sig[506,3] 4
sig[607,3] 6
sig[707,3] 5
digjg[101,102,3] 10000
digjg[101,203,3] 10000
digjg[101,303,3] 2.28712077883798
digjg[101,304,3] 10000
digjg[101,405,3] 10000
digjg[101,505,3] 10000
digjg[101,506,3] 10000
digjg[101,607,3] 10000
digjg[101,707,3] 10000
digjg[102,101,3] 10000
digjg[102,203,3] 10000
digjg[102,303,3] 10000
digjg[102,304,3] 2.3250297034953703e-08
digjg[102,405,3] 10000
digjg[102,505,3] 10000
digjg[102,506,3] 10000
digjg[102,607,3] 10000
digjg[102,707,3] 10000
digjg[203,101,3] 2.2384005288262374e-08
digjg[203,102,3] 10000
digjg[203,303,3] 10000
digjg[203,304,3] 10000
digjg[203,405,3] 10000
digjg[203,505,3] 10000
digjg[203,506,3] 10000
digjg[203,607,3] 10000
digjg[203,707,3] 10000
digjg[303,101,3] 10000
digjg[303,102,3] 5.2955075379985361e-01
digjg[303,203,3] 10000
digjg[303,304,3] 10000
digjg[303,405,3] 10000
digjg[303,505,3] 10000
digjg[303,506,3] 10000
digjg[303,607,3] 10000
digjg[303,707,3] 10000
digjg[304,101,3] 10000
digjg[304,102,3] 10000
digjg[304,203,3] 10000
digjg[304,303,3] 10000
digjg[304,405,3] 10000
digjg[304,505,3] 10000
digjg[304,506,3] 2.0551708629989904e-08
digjg[304,607,3] 10000
digjg[304,707,3] 10000
digjg[405,101,3] 10000
digjg[405,102,3] 10000
digjg[405,203,3] 2.6163704859979323e-08
digjg[405,303,3] 10000
digjg[405,304,3] 10000
digjg[405,505,3] 10000
digjg[405,506,3] 10000
digjg[405,607,3] 10000
digjg[405,707,3] 10000
digjg[505,101,3] 10000
digjg[505,102,3] 10000
digjg[505,203,3] 10000
digjg[505,303,3] 10000
digjg[505,304,3] 10000
digjg[505,405,3] 2.6757197605872853e-08
digjg[505,506,3] 10000
digjg[505,607,3] 10000
digjg[505,707,3] 10000
digjg[506,101,3] 10000
digjg[506,102,3] 10000
digjg[506,203,3] 10000
digjg[506,303,3] 10000
digjg[506,304,3] 10000
digjg[506,405,3] 10000
digjg[506,505,3] 10000
digjg[506,607,3] 10000
digjg[506,707,3] 1.8857091519634186e-08
digjg[607,101,3] 10000
digjg[607,102,3] 10000
digjg[607,203,3] 10000
digjg[607,303,3] 10000
digjg[607,304,3] 10000
digjg[607,405,3] 10000
digjg[607,505,3] 2.2727403044137517e+00
digjg[607,506,3] 10000
digjg[607,707,3] 10000
digjg[707,101,3] 10000
digjg[707,102,3] 10000
digjg[707,203,3] 10000
digjg[707,303,3] 10000
digjg[707,304,3] 10000
digjg[707,405,3] 10000
digjg[707,505,3] 10000
digjg[707,506,3] 10000
digjg[707,607,3] 2.1685283061459119e-08
difigjg[101,102,3,0] 4.1147138478858806e+03
difigjg[101,102,3,1] 4.8461002522689332e+03
difigjg[101,203,3,0] 4.9378155305082792e+03
difigjg[101,203,3,1] 3.9528280441748816e+03
difigjg[101,303,3,0] 4.6259400389773754e-02
difigjg[101,303,3,1] 2.2866509794896284e+00
difigjg[101,304,3,0] 4.2240459623162978e+03
difigjg[101,304,3,1] 4.1015918113410125e+03
difigjg[101,405,3,0] 4.9299169154957854e+03
difigjg[101,405,3,1] 3.9312457843254224e+03
difigjg[101,505,3,0] 4926.8631913515
difigjg[101,505,3,1] 3.9156990233968536e+03
difigjg[101,506,3,0] 4930.22947781667
difigjg[101,506,3,1] 3.9336806940398546e+03
difigjg[101,607,3,0] 4.9311917483095449e+03
difigjg[101,607,3,1] 3.9355955891269236e+03
difigjg[101,707,3,0] 4.9139384258461914e+03
difigjg[101,707,3,1] 3.9808864931010921e+03
difigjg[102,101,3,0] 4.1265576290893187e+03
difigjg[102,101,3,1] 4848.65574054567
difigjg[102,203,3,0] 4.0242347350507139e+03
difigjg[102,203,3,1] 4.9521923547501519e+03
difigjg[102,303,3,0] 4.9198398513268976e+03
difigjg[102,303,3,1] 3.9794286216808064e+03
difigjg[102,304,3,0] 1.6828938492305381e-08
difigjg[102,304,3,1] 1.1168015406114472e-08
difigjg[102,405,3,0] 4.1501963772908048e+03
difigjg[102,405,3,1] 4.2141334140846266e+03
difigjg[102,505,3,0] 4.9662642846004728e+03
difigjg[102,505,3,1] 3.9894771380044572e+03
difigjg[102,506,3,0] 4.8732398367074238e+03
difigjg[102,506,3,1] 4.1019275679010188e+03
difigjg[102,607,3,0] 4.1420539418357348e+03
difigjg[102,607,3,1] 4.2245991473897720e+03
difigjg[102,707,3,0] 4.2157498984152453e+03
difigjg[102,707,3,1] 4.1848999898418588e+03
difigjg[203,101,3,0] 1.4619861965777763e-08
difigjg[203,101,3,1] 1.2979535128298241e-08
difigjg[203,102,3,0] 4.0240929490090662e+03
difigjg[203,102,3,1] 4.9530560906190967e+03
difigjg[203,303,3,0] 4.0959172083064536e+03
difigjg[203,303,3,1] 4.8627963161016105e+03
difigjg[203,304,3,0] 4.0337677149592187e+03
difigjg[203,304,3,1] 4944.5815681961
difigjg[203,405,3,0] 4.8767214546714440e+03
difigjg[203,405,3,1] 4.0853638697090919e+03
difigjg[203,505,3,0] 4.9641217270486177e+03
difigjg[203,505,3,1] 3.9822843353661492e+03
difigjg[203,506,3,0] 4.1518978414821040e+03
difigjg[203,506,3,1] 4203.56312320643
difigjg[203,607,3,0] 4883.70468272643
difigjg[203,607,3,1] 4.0906062563168180e+03
difigjg[203,707,3,0] 4.1738523998748424e+03
difigjg[203,707,3,1] 4.2134094969828411e+03
difigjg[303,101,3,0] 4.9315406793719631e+03
difigjg[303,101,3,1] 3.9263336588261777e+03
difigjg[303,102,3,0] 2.3682047311847923e-01
difigjg[303,102,3,1] 4.7364546993653878e-01
difigjg[303,203,3,0] 4.0697900336185189e+03
difigjg[303,203,3,1] 4.8745193224111290e+03
difigjg[303,304,3,0] 4.8037423011321425e+03
difigjg[303,304,3,1] 4.6968194774111453e+03
difigjg[303,405,3,0] 4.1840397950876168e+03
difigjg[303,405,3,1] 4.1003978045789136e+03
difigjg[303,505,3,0] 4918.43747746691
difigjg[303,505,3,1] 3.9093091259069029e+03
difigjg[303,506,3,0] 4931.38117270323
difigjg[303,506,3,1] 3.9322205132952140e+03
difigjg[303,607,3,0] 4.9322399899590027e+03
difigjg[303,607,3,1] 3.9329628065437055e+03
difigjg[303,707,3,0] 4.9162920697831423e+03
difigjg[303,707,3,1] 3.9795372610859918e+03
difigjg[304,101,3,0] 4.2398007565277985e+03
difigjg[304,101,3,1] 4.0915035412378188e+03
difigjg[304,102,3,0] 4.8795281294625565e+03
difigjg[304,102,3,1] 4.0966526418504782e+03
difigjg[304,203,3,0] 4.0363591621392329e+03
difigjg[304,203,3,1] 4944.14726001231
difigjg[304,303,3,0] 4.8027001466240035e+03
difigjg[304,303,3,1] 4.6990393886185557e+03
difigjg[304,405,3,0] 4.0308145638903397e+03
difigjg[304,405,3,1] 4.9497687722796845e+03
difigjg[304,505,3,0] 4.1909461897187466e+03
difigjg[304,505,3,1] 4.1933238445317575e+03
difigjg[304,506,3,0] 1.2259008975172566e-08
difigjg[304,506,3,1] 1.2644308971394015e-08
difigjg[304,607,3,0] 4.1504623588758413e+03
difigjg[304,607,3,1] 4.2082343074704786e+03
difigjg[304,707,3,0] 4.2178703156693864e+03
difigjg[304,707,3,1] 4.1726068885164859e+03
difigjg[405,101,3,0] 4.9264677620164739e+03
difigjg[405,101,3,1] 3.9309854401235152e+03
difigjg[405,102,3,0] 4.1476896793579454e+03
difigjg[405,102,3,1] 4.2092616948830118e+03
difigjg[405,203,3,0] 1.5385679611479854e-08
difigjg[405,203,3,1] 1.7600007450260005e-08
difigjg[405,303,3,0] 4.2059055049681956e+03
difigjg[405,303,3,1] 4.0911634597547136e+03
difigjg[405,304,3,0] 4.0409294218170730e+03
difigjg[405,304,3,1] 4.9385218246237273e+03
difigjg[405,505,3,0] 4.8632125015962174e+03
difigjg[405,505,3,1] 4.6643361641756837e+03
difigjg[405,506,3,0] 4.0472736832713626e+03
difigjg[405,506,3,1] 4.8830737438270144e+03
difigjg[405,607,3,0] 4.8995522518853413e+03
difigjg[405,607,3,1] 4.0485486771219780e+03
difigjg[405,707,3,0] 4178.18099523403
difigjg[405,707,3,1] 4.1728631333255671e+03
difigjg[505,101,3,0] 4.9303306528294315e+03
difigjg[505,101,3,1] 3.9286260280782803e+03
difigjg[505,102,3,0] 4.9456709101606066e+03
difigjg[505,102,3,1] 4.0189241833090109e+03
difigjg[505,203,3,0] 4.9474403760933756e+03
difigjg[505,203,3,1] 4.0250126590226546e+03
difigjg[505,303,3,0] 4.9263348601239913e+03
difigjg[505,303,3,1] 3.9327023663710156e+03
difigjg[505,304,3,0] 4.1805108851935856e+03
difigjg[505,304,3,1] 4.1690037431044448e+03
difigjg[505,405,3,0] 1.6054977150876850e-08
difigjg[505,405,3,1] 1.7732704951896072e-08
difigjg[505,506,3,0] 4.8353995287718817e+03
difigjg[505,506,3,1] 4.6943560981430273e+03
difigjg[505,607,3,0] 4.9592332653125568e+03
difigjg[505,607,3,1] 3.9876456327534620e+03
difigjg[505,707,3,0] 4.9374195929880261e+03
difigjg[505,707,3,1] 4.0301946034415032e+03
difigjg[506,101,3,0] 4.9333696237684517e+03
difigjg[506,101,3,1] 3.9279222675717247e+03
difigjg[506,102,3,0] 4.8719677019436813e+03
difigjg[506,102,3,1] 4.0932634499466808e+03
difigjg[506,203,3,0] 4.1554472883662147e+03
difigjg[506,203,3,1] 4.2092210047355093e+03
difigjg[506,303,3,0] 4.9306245650437140e+03
difigjg[506,303,3,1] 3.9331665005230066e+03
difigjg[506,304,3,0] 4.1547303405197154e+03
difigjg[506,304,3,1] 4.1971454990728162e+03
difigjg[506,405,3,0] 4.0423038375935926e+03
difigjg[506,405,3,1] 4.8867576203719482e+03
difigjg[506,505,3,0] 4.8547462898508957e+03
difigjg[506,505,3,1] 4.6656560484428182e+03
difigjg[506,607,3,0] 4.0446503921099675e+03
difigjg[506,607,3,1] 4.8921325915206126e+03
difigjg[506,707,3,0] 1.0771259689950503e-08
difigjg[506,707,3,1] 1.1661202813934517e-08
difigjg[607,101,3,0] 4.9348686505346823e+03
difigjg[607,101,3,1] 3.9308607118819455e+03
difigjg[607,102,3,0] 4.1417931100105625e+03
difigjg[607,102,3,1] 4.2230099222554209e+03
difigjg[607,203,3,0] 4.8851283601188479e+03
difigjg[607,203,3,1] 4.1001283479103122e+03
difigjg[607,303,3,0] 4.9331201330581471e+03
difigjg[607,303,3,1] 3.9355448026934118e+03
difigjg[607,304,3,0] 4.1508996902606905e+03
difigjg[607,304,3,1] 4.2023889378179556e+03
difigjg[607,405,3,0] 4.8948446691562967e+03
difigjg[607,405,3,1] 4.0492097880477831e+03
difigjg[607,505,3,0] 2.2532625975456395e+00
difigjg[607,505,3,1] 2.9689228693387859e-01
difigjg[607,506,3,0] 4.0425300875049015e+03
difigjg[607,506,3,1] 4.8916091824891391e+03
difigjg[607,707,3,0] 4.0475391778486210e+03
difigjg[607,707,3,1] 4.9322370578094287e+03
difigjg[707,101,3,0] 4.9261736854522142e+03
difigjg[707,101,3,1] 3.9606675697290398e+03
difigjg[707,102,3,0] 4.1876199751438480e+03
difigjg[707,102,3,1] 4.1772869521104922e+03
difigjg[707,203,3,0] 4.2111312134928812e+03
difigjg[707,203,3,1] 4.1879872977142768e+03
difigjg[707,303,3,0] 4.9184136690223031e+03
difigjg[707,303,3,1] 3.9651302773829839e+03
difigjg[707,304,3,0] 4.1911626787867181e+03
difigjg[707,304,3,1] 4.1662141360298083e+03
difigjg[707,405,3,0] 4.2000785942445154e+03
difigjg[707,405,3,1] 4.1594637018852764e+03
difigjg[707,505,3,0] 4.9533575816338262e+03
difigjg[707,505,3,1] 3.9950930853377622e+03
difigjg[707,506,3,0] 4.1890653100688987e+03
difigjg[707,506,3,1] 4.1574069685861723e+03
difigjg[707,607,3,0] 1.1454534939782417e-08
difigjg[707,607,3,1] 1.4849876195997630e-08
pigjg[101,102,3] 0
pigjg[101,203,3] 0
pigjg[101,303,3] 2.28712077883798
pigjg[101,304,3] 0
pigjg[101,405,3] 0
pigjg[101,505,3] 0
pigjg[101,506,3] 0
pigjg[101,607,3] 0
pigjg[101,707,3] 0
pigjg[102,101,3] 0
pigjg[102,203,3] 0
pigjg[102,303,3] 0
pigjg[102,304,3] 2.3250297034953703e-08
pigjg[102,405,3] 0
pigjg[102,505,3] 0
pigjg[102,506,3] 0
pigjg[102,607,3] 0
pigjg[102,707,3] 0
pigjg[203,101,3] 2.2384005288262374e-08
pigjg[203,102,3] 0
pigjg[203,303,3] 0
pigjg[203,304,3] 0
pigjg[203,405,3] 0
pigjg[203,505,3] 0
pigjg[203,506,3] 0
pigjg[203,607,3] 0
pigjg[203,707,3] 0
pigjg[303,101,3] 0
pigjg[303,102,3] 5.2955075379985361e-01
pigjg[303,203,3] 0
pigjg[303,304,3] 0
pigjg[303,405,3] 0
pigjg[303,505,3] 0
pigjg[303,506,3] 0
pigjg[303,607,3] 0
pigjg[303,707,3] 0
pigjg[304,101,3] 0
pigjg[304,102,3] 0
pigjg[304,203,3] 0
pigjg[304,303,3] 0
pigjg[304,405,3] 0
pigjg[304,505,3] 0
pigjg[304,506,3] 2.0551708629989904e-08
pigjg[304,607,3] 0
pigjg[304,707,3] 0
pigjg[405,101,3] 0
pigjg[405,102,3] 0
pigjg[405,203,3] 2.6163704859979323e-08
pigjg[405,303,3] 0
pigjg[405,304,3] 0
pigjg[405,505,3] 0
pigjg[405,506,3] 0
pigjg[405,607,3] 0
pigjg[405,707,3] 0
pigjg[505,101,3] 0
pigjg[505,102,3] 0
pigjg[505,203,3] 0
pigjg[505,303,3] 0
pigjg[505,304,3] 0
pigjg[505,405,3] 2.6757197605872853e-08
pigjg[505,506,3] 0
pigjg[505,607,3] 0
pigjg[505,707,3] 0
pigjg[506,101,3] 0
pigjg[506,102,3] 0
pigjg[506,203,3] 0
pigjg[506,303,3] 0
pigjg[506,304,3] 0
pigjg[506,405,3] 0
pigjg[506,505,3] 0
pigjg[506,607,3] 0
pigjg[506,707,3] 1.8857091519634186e-08
pigjg[607,101,3] 0
pigjg[607,102,3] 0
pigjg[607,203,3] 0
pigjg[607,303,3] 0
pigjg[607,304,3] 0
pigjg[607,405,3] 0
pigjg[607,505,3] 2.2727403044137517e+00
pigjg[607,506,3] 0
pigjg[607,707,3] 0
pigjg[707,101,3] 0
pigjg[707,102,3] 0
pigjg[707,203,3] 0
pigjg[707,303,3] 0
pigjg[707,304,3] 0
pigjg[707,405,3] 0
pigjg[707,505,3] 0
pigjg[707,506,3] 0
pigjg[707,607,3] 2.1685283061459119e-08
Rig[101,3,0] 1.0306248948523319e+01
Rig[101,3,1] 5.06658767315892
Rig[102,3,0] 5.23338969891562
Rig[102,3,1] 6.7266796713492889e+00
Rig[203,3,0] 9.44554496515985
Rig[203,3,1] 7.3368822227264747e+00
Rig[303,3,0] 9.4455449603191823e+00
Rig[303,3,1] 7.3368822257022774e+00
Rig[304,3,0] 4.9965692198264673e+00
Rig[304,3,1] 7.2003251407465676e+00
Rig[405,3,0] 1.0618569066374448e+01
Rig[405,3,1] 8.6059975303428811e+00
Rig[505,3,0] 8.3653064666262082e+00
Rig[505,3,1] 8.3091052700033536e+00
Rig[506,3,0] 5.0513930535009486e+00
Rig[506,3,1] 7.87246052824419
Rig[607,3,0] 8.9615484049776430e+00
Rig[607,3,1] 1.0051712975658109e+01
Rig[707,3,0] 6.5068593071404628e+00
Rig[707,3,1] 9.3614041346384
rhoig[101,3] 2.3500774659623858e-09
rhoig[102,3] 2.1353670968850702e-01
rhoig[203,3] 1.3603744797308082e-09
rhoig[303,3] 8.2486906194390031e-10
rhoig[304,3] 9.9999999542450624e-01
rhoig[405,3] 7.1857453320944842e-09
rhoig[505,3] 4.0474067977705275e-01
rhoig[506,3] 9.9999999851158261e-01
rhoig[607,3] 1.2760041911974440e-09
rhoig[707,3] 9.9999999918074955e-01
Lig[101,3,0] 9.4918039332815454e+00
Lig[101,3,1] 5.05023124894979
Lig[102,3,0] 4.9965692205185857e+00
Lig[102,3,1] 7.2003251357852687e+00
Lig[203,3,0] 1.0306248957055717e+01
Lig[203,3,1] 5.0665876768901752e+00
Lig[303,3,0] 4.9965692309154122e+00
Lig[303,3,1] 7.20032513801928
Lig[304,3,0] 5.0513930510878184e+00
Lig[304,3,1] 7.8724605230023963e+00
Lig[405,3,0] 9.4455449707011390e+00
Lig[405,3,1] 7.3368822330769330e+00
Lig[505,3,0] 1.0618569071768491e+01
Lig[505,3,1] 8.6059975390625230e+00
Lig[506,3,0] 6.5068593031067836e+00
Lig[506,3,1] 9.3614041320036652e+00
Lig[607,3,0] 1.0618569061242292e+01
Lig[607,3,1] 8.6059975512942870e+00
Lig[707,3,0] 8.9615484003361736e+00
Lig[707,3,1] 1.0051712976792176e+01
landaig[101,3] 1.9388589065445672e-01
landaig[102,3] 8.5025364526813973e-10
landaig[203,3] 9.9999999844381682e-01
landaig[303,3] 9.9999999745114820e-01
landaig[304,3] 4.50151027564516e-09
landaig[405,3] 9.9999999427789454e-01
landaig[505,3] 5.4516391401193687e-10
landaig[506,3] 1.3897087924874540e-09
landaig[607,3] 9.9999999181590749e-01
landaig[707,3] 1.0295000407722910e-09
minig[101,3] 1.9388588830437925e-01
minig[102,3] 0
minig[203,3] 9.9999999710653287e-01
minig[303,3] 9.9999999664936767e-01
minig[304,3] 0
minig[405,3] 9.9999998709214921e-01
minig[505,3] 0
minig[506,3] 0
minig[607,3] 9.9999999056299282e-01
minig[707,3] 0
maxig[101,3] 0
maxig[102,3] 2.1353670886128634e-01
maxig[203,3] 0
maxig[303,3] 0
maxig[304,3] 0.999999991015356
maxig[405,3] 0
maxig[505,3] 4.0474067923188883e-01
maxig[506,3] 9.9999999714496368e-01
maxig[607,3] 0
maxig[707,3] 9.9999999819742946e-01
entryig[101,3] 1
entryig[102,3] 0
entryig[203,3] 1
entryig[303,3] 1
entryig[304,3] 0
entryig[405,3] 1
entryig[505,3] 0
entryig[506,3] 0
entryig[607,3] 1
entryig[707,3] 0
muig[101,3] 0
muig[102,3] 1
muig[203,3] 1
muig[303,3] 1
muig[304,3] 1
muig[405,3] 0
muig[505,3] 1
muig[506,3] 1
muig[607,3] 1
muig[707,3] 1
pig[101,3] 0
pig[102,3] 2.1353670886128634e-01
pig[203,3] 9.9999999710653287e-01
pig[303,3] 9.9999999664936767e-01
pig[304,3] 0.999999991015356
pig[405,3] 0
pig[505,3] 4.0474067923188883e-01
pig[506,3] 9.9999999714496368e-01
pig[607,3] 9.9999999056299282e-01
pig[707,3] 9.9999999819742946e-01
alphaig[101,3] 1.9388588830437925e-01
alphaig[102,3] 2.1353670886128634e-01
alphaig[203,3] 9.9999999710653287e-01
alphaig[303,3] 9.9999999664936767e-01
alphaig[304,3] 0.999999991015356
alphaig[405,3] 9.9999998709214921e-01
alphaig[505,3] 4.0474067923188883e-01
alphaig[506,3] 9.9999999714496368e-01
alphaig[607,3] 9.9999999056299282e-01
alphaig[707,3] 9.9999999819742946e-01
